DIR: 0.2620146314439963, EFF: 0.4392977276858791, INT: 0.010344181452095598, OBJ: 0.288343459418029
original problem has 2916 variables (100 bin, 0 int, 0 impl, 2816 cont) and 374 constraints
solution violates original bounds of variable <t_x80> [0,0] solution value <1>
all 1 solutions given by solution candidate storage are infeasible

presolving:
   (0.0s) running MILP presolver
   (0.0s) MILP presolver found nothing
   (0.1s) probing cycle finished: starting next cycle
presolving (1 rounds: 1 fast, 1 medium, 1 exhaustive):
 1520 deleted vars, 0 deleted constraints, 0 added constraints, 0 tightened bounds, 0 added holes, 0 changed sides, 0 changed coefficients
 14158 implications, 4 cliques
presolved problem has 1396 variables (80 bin, 0 int, 0 impl, 1316 cont) and 374 constraints
     80 constraints of type <varbound>
    294 constraints of type <linear>
Presolving Time: 0.13

 time | node  | left  |LP iter|LP it/n|mem/heur|mdpt |vars |cons |rows |cuts |sepa|confs|strbr|  dualbound   | primalbound  |  gap   | compl. 
  0.2s|     1 |     0 |  1761 |     - |    16M |   0 |1396 | 374 | 374 |   0 |  0 |   0 |   0 | 5.627412e+06 |      --      |    Inf | unknown
Computing relative interior point (time limit: 1e+20, iter limit: 17610) ...
  0.5s|     1 |     0 |  1795 |     - |    18M |   0 |1396 | 374 | 384 |  10 |  1 |   0 |   0 | 5.630386e+06 |      --      |    Inf | unknown
  0.5s|     1 |     0 |  1854 |     - |    18M |   0 |1396 | 374 | 394 |  20 |  2 |   0 |   0 | 5.639930e+06 |      --      |    Inf | unknown
  0.5s|     1 |     0 |  1933 |     - |    18M |   0 |1396 | 374 | 404 |  30 |  3 |   0 |   0 | 5.648487e+06 |      --      |    Inf | unknown
  0.6s|     1 |     0 |  1970 |     - |    18M |   0 |1396 | 374 | 414 |  40 |  4 |   0 |   0 | 5.655931e+06 |      --      |    Inf | unknown
  0.6s|     1 |     0 |  1998 |     - |    19M |   0 |1396 | 374 | 424 |  50 |  5 |   0 |   0 | 5.657731e+06 |      --      |    Inf | unknown
  0.6s|     1 |     0 |  2038 |     - |    19M |   0 |1396 | 374 | 434 |  60 |  6 |   0 |   0 | 5.659032e+06 |      --      |    Inf | unknown
  0.7s|     1 |     0 |  2151 |     - |    19M |   0 |1396 | 374 | 444 |  70 |  7 |   0 |   0 | 5.666216e+06 |      --      |    Inf | unknown
  0.8s|     1 |     0 |  2215 |     - |    20M |   0 |1396 | 374 | 454 |  80 |  8 |   0 |   0 | 5.670378e+06 |      --      |    Inf | unknown
  0.8s|     1 |     0 |  2264 |     - |    20M |   0 |1396 | 374 | 464 |  90 |  9 |   0 |   0 | 5.672660e+06 |      --      |    Inf | unknown
  0.9s|     1 |     0 |  2333 |     - |    21M |   0 |1396 | 374 | 474 | 100 | 10 |   0 |   0 | 5.673330e+06 |      --      |    Inf | unknown
  1.0s|     1 |     0 |  2411 |     - |    22M |   0 |1396 | 374 | 484 | 110 | 11 |   0 |   0 | 5.679176e+06 |      --      |    Inf | unknown
  1.1s|     1 |     0 |  2503 |     - |    24M |   0 |1396 | 374 | 494 | 120 | 12 |   0 |   0 | 5.681533e+06 |      --      |    Inf | unknown
  1.2s|     1 |     0 |  2569 |     - |    25M |   0 |1396 | 374 | 504 | 130 | 13 |   0 |   0 | 5.682980e+06 |      --      |    Inf | unknown
  1.3s|     1 |     0 |  2649 |     - |    25M |   0 |1396 | 374 | 514 | 140 | 14 |   0 |   0 | 5.684225e+06 |      --      |    Inf | unknown
 time | node  | left  |LP iter|LP it/n|mem/heur|mdpt |vars |cons |rows |cuts |sepa|confs|strbr|  dualbound   | primalbound  |  gap   | compl. 
  1.5s|     1 |     0 |  2687 |     - |    26M |   0 |1396 | 374 | 524 | 150 | 15 |   0 |   0 | 5.684700e+06 |      --      |    Inf | unknown
  1.6s|     1 |     0 |  2771 |     - |    27M |   0 |1396 | 374 | 534 | 160 | 16 |   0 |   0 | 5.685996e+06 |      --      |    Inf | unknown
  1.8s|     1 |     0 |  2840 |     - |    29M |   0 |1396 | 374 | 532 | 170 | 17 |   0 |   0 | 5.686741e+06 |      --      |    Inf | unknown
  2.0s|     1 |     0 |  2898 |     - |    30M |   0 |1396 | 374 | 542 | 180 | 18 |   0 |   0 | 5.687384e+06 |      --      |    Inf | unknown
  2.2s|     1 |     0 |  2984 |     - |    31M |   0 |1396 | 374 | 552 | 190 | 19 |   0 |   0 | 5.688668e+06 |      --      |    Inf | unknown
  2.4s|     1 |     0 |  3040 |     - |    32M |   0 |1396 | 374 | 562 | 200 | 20 |   0 |   0 | 5.689031e+06 |      --      |    Inf | unknown
  2.6s|     1 |     0 |  3102 |     - |    34M |   0 |1396 | 374 | 572 | 210 | 21 |   0 |   0 | 5.689490e+06 |      --      |    Inf | unknown
  2.8s|     1 |     0 |  3167 |     - |    35M |   0 |1396 | 374 | 582 | 220 | 22 |   0 |   0 | 5.690157e+06 |      --      |    Inf | unknown
  3.1s|     1 |     0 |  3239 |     - |    36M |   0 |1396 | 374 | 571 | 230 | 23 |   0 |   0 | 5.690624e+06 |      --      |    Inf | unknown
  3.3s|     1 |     0 |  3353 |     - |    36M |   0 |1396 | 374 | 581 | 240 | 24 |   0 |   0 | 5.691681e+06 |      --      |    Inf | unknown
  3.5s|     1 |     0 |  3407 |     - |    39M |   0 |1396 | 374 | 591 | 250 | 25 |   0 |   0 | 5.692423e+06 |      --      |    Inf | unknown
  3.8s|     1 |     0 |  3521 |     - |    39M |   0 |1396 | 374 | 601 | 260 | 26 |   0 |   0 | 5.693028e+06 |      --      |    Inf | unknown
  4.0s|     1 |     0 |  3589 |     - |    40M |   0 |1396 | 374 | 611 | 270 | 27 |   0 |   0 | 5.693337e+06 |      --      |    Inf | unknown
  4.3s|     1 |     0 |  3649 |     - |    42M |   0 |1396 | 374 | 621 | 280 | 28 |   0 |   0 | 5.693555e+06 |      --      |    Inf | unknown
  4.6s|     1 |     0 |  3734 |     - |    43M |   0 |1396 | 374 | 609 | 290 | 29 |   0 |   0 | 5.695002e+06 |      --      |    Inf | unknown
 time | node  | left  |LP iter|LP it/n|mem/heur|mdpt |vars |cons |rows |cuts |sepa|confs|strbr|  dualbound   | primalbound  |  gap   | compl. 
  4.9s|     1 |     0 |  3802 |     - |    44M |   0 |1396 | 374 | 619 | 300 | 30 |   0 |   0 | 5.695240e+06 |      --      |    Inf | unknown
  5.2s|     1 |     0 |  3882 |     - |    45M |   0 |1396 | 374 | 629 | 310 | 31 |   0 |   0 | 5.696315e+06 |      --      |    Inf | unknown
  5.5s|     1 |     0 |  3944 |     - |    49M |   0 |1396 | 374 | 639 | 320 | 32 |   0 |   0 | 5.697269e+06 |      --      |    Inf | unknown
  5.8s|     1 |     0 |  4066 |     - |    49M |   0 |1396 | 374 | 649 | 330 | 33 |   0 |   0 | 5.698564e+06 |      --      |    Inf | unknown
  6.1s|     1 |     0 |  4112 |     - |    49M |   0 |1396 | 374 | 659 | 340 | 34 |   0 |   0 | 5.698732e+06 |      --      |    Inf | unknown
  6.5s|     1 |     0 |  4201 |     - |    51M |   0 |1396 | 374 | 638 | 350 | 35 |   0 |   0 | 5.699270e+06 |      --      |    Inf | unknown
  6.9s|     1 |     0 |  4374 |     - |    53M |   0 |1396 | 374 | 648 | 360 | 36 |   0 |   0 | 5.700420e+06 |      --      |    Inf | unknown
  7.3s|     1 |     0 |  4629 |     - |    54M |   0 |1396 | 374 | 658 | 370 | 37 |   0 |   0 | 5.701116e+06 |      --      |    Inf | unknown
  7.6s|     1 |     0 |  4713 |     - |    57M |   0 |1396 | 374 | 668 | 380 | 38 |   0 |   0 | 5.701520e+06 |      --      |    Inf | unknown
  8.0s|     1 |     0 |  4784 |     - |    61M |   0 |1396 | 374 | 678 | 390 | 39 |   0 |   0 | 5.701603e+06 |      --      |    Inf | unknown
  8.4s|     1 |     0 |  4897 |     - |    62M |   0 |1396 | 374 | 688 | 400 | 40 |   0 |   0 | 5.701756e+06 |      --      |    Inf | unknown
  8.8s|     1 |     0 |  5003 |     - |    62M |   0 |1396 | 374 | 662 | 410 | 41 |   0 |   0 | 5.701907e+06 |      --      |    Inf | unknown
  9.1s|     1 |     0 |  5059 |     - |    64M |   0 |1396 | 374 | 672 | 420 | 42 |   0 |   0 | 5.701953e+06 |      --      |    Inf | unknown
  9.5s|     1 |     0 |  5265 |     - |    64M |   0 |1396 | 374 | 682 | 430 | 43 |   0 |   0 | 5.702240e+06 |      --      |    Inf | unknown
  9.9s|     1 |     0 |  5486 |     - |    66M |   0 |1396 | 374 | 692 | 440 | 44 |   0 |   0 | 5.702598e+06 |      --      |    Inf | unknown
 time | node  | left  |LP iter|LP it/n|mem/heur|mdpt |vars |cons |rows |cuts |sepa|confs|strbr|  dualbound   | primalbound  |  gap   | compl. 
 10.3s|     1 |     0 |  5688 |     - |    67M |   0 |1396 | 374 | 702 | 450 | 45 |   0 |   0 | 5.702972e+06 |      --      |    Inf | unknown
 10.7s|     1 |     0 |  5913 |     - |    68M |   0 |1396 | 374 | 712 | 460 | 46 |   0 |   0 | 5.703433e+06 |      --      |    Inf | unknown
 11.2s|     1 |     0 |  6265 |     - |    70M |   0 |1396 | 374 | 686 | 470 | 47 |   0 |   0 | 5.704219e+06 |      --      |    Inf | unknown
 11.6s|     1 |     0 |  6450 |     - |    72M |   0 |1396 | 374 | 696 | 480 | 48 |   0 |   0 | 5.704451e+06 |      --      |    Inf | unknown
 12.0s|     1 |     0 |  6608 |     - |    75M |   0 |1396 | 374 | 706 | 490 | 49 |   0 |   0 | 5.704582e+06 |      --      |    Inf | unknown
 12.1s|     1 |     0 |  6917 |     - |    75M |   0 |1396 | 374 | 716 | 500 | 50 |   0 |   0 | 5.704902e+06 |      --      |    Inf | unknown
 12.1s|     1 |     2 |  6917 |     - |    75M |   0 |1396 | 374 | 716 | 500 | 50 |   0 |   0 | 5.704902e+06 |      --      |    Inf | unknown

SCIP Status        : solving was interrupted [node limit reached]
Solving Time (sec) : 12.13
Solving Nodes      : 1
Primal Bound       : +1.00000000000000e+20 (0 solutions)
Dual Bound         : +5.70490157473946e+06
Gap                : infinite
